/*********************************************
 * OPL 12.5 Data
 * Author: nono
 * Creation Date: 2 oct. 2014 at 18:12:32
 * This is the problem from Barbara M. Smith's Rehearsal paper
 *********************************************/

npieces = 9;
nplayers = 5;
durations = [2, 4, 1, 3, 3, 2, 5, 7, 6];
rehearsal = 
    [
     [1,1,0,1,0,1,1,0,1],
     [1,1,0,1,1,1,0,1,0],
     [1,1,0,0,0,0,1,1,0],
     [1,0,0,0,1,1,0,0,1],
     [0,0,1,0,1,1,1,1,0]
  ];